N = 6;
Capacity = 4;
ItemsPerCustomer = [2, 6, 5, 3, 6, 7];
maxItemsPerCustomer = 7;
binCapacity = 50;
SizesOfItems = [|
  50, 50, 0, 0, 0, 0, 0
| 26, 23, 21, 19, 18, 17, 0
| 38, 37, 20, 17, 15, 0, 0
| 39, 29, 23, 0, 0, 0, 0
| 36, 32, 29, 18, 17, 11, 0
| 37, 28, 25, 25, 23, 20, 15
|];
Distance = [|
  0, 39, 49, 53, 23, 60, 29
| 39, 0, 83, 68, 56, 22, 67
| 49, 83, 0, 42, 27, 105, 38
| 53, 68, 42, 0, 37, 88, 64
| 23, 56, 27, 37, 0, 78, 28
| 60, 22, 105, 88, 78, 0, 88
| 29, 67, 38, 64, 28, 88, 0
|];
